NAME          ClpDefau
ROWS
 N  OBJROW
 L  R_256_0
 L  R_256_1
 L  R_256_2
 L  R_256_3
 L  R_256_4
 L  R_256_5
 L  R_256_6
 L  R_256_7
 L  R_256_8
 L  R_256_9
 L  R_256_10
 L  R_256_11
 L  R_256_12
 L  R_256_13
 L  R_256_14
 L  R_256_15
COLUMNS
    x_0       OBJROW     -1.           R_256_4   1.          
    x_0       R_256_10  3.             R_256_12  6.          
    x_0       R_256_13  9.          
    x_1       OBJROW     -2.           R_256_1   8.          
    x_1       R_256_10  7.          
    x_2       OBJROW     -2.           R_256_13  10.         
    x_3       OBJROW     -6.           R_256_12  6.          
    x_3       R_256_15  2.          
    x_4       OBJROW     -3.           R_256_0   1.          
    x_4       R_256_4   9.             R_256_5   5.          
    x_4       R_256_11  6.             R_256_14  2.          
    x_5       OBJROW     -5.           R_256_0   1.          
    x_5       R_256_2   3.             R_256_5   10.         
    x_5       R_256_6   4.             R_256_7   1.          
    x_5       R_256_8   10.         
    x_6       OBJROW     -5.           R_256_0   5.          
    x_6       R_256_8   8.          
    x_7       OBJROW     -10.          R_256_8   3.          
    x_7       R_256_9   4.          
    x_8       OBJROW     -4.           R_256_8   1.          
    x_8       R_256_10  9.             R_256_13  3.          
    x_8       R_256_15  1.          
    x_9       OBJROW     -10.          R_256_11  7.          
    x_10      OBJROW     -1.           R_256_1   2.          
    x_10      R_256_6   7.             R_256_7   5.          
    x_10      R_256_8   1.             R_256_10  8.          
    x_10      R_256_14  1.          
    x_11      OBJROW     -10.          R_256_1   8.          
    x_11      R_256_2   10.            R_256_5   6.          
    x_11      R_256_7   2.             R_256_8   10.         
    x_11      R_256_13  8.          
    x_12      OBJROW     -3.        
    x_13      OBJROW     -7.           R_256_4   6.          
    x_13      R_256_5   9.             R_256_6   7.          
    x_13      R_256_12  5.          
    x_14      OBJROW     -7.           R_256_1   5.          
    x_14      R_256_2   9.             R_256_9   3.          
    x_15      OBJROW     -9.           R_256_0   8.          
    x_15      R_256_6   5.          
RHS
    RHS       R_256_0   11.            R_256_1   21.         
    RHS       R_256_2   10.            R_256_3   16.         
    RHS       R_256_4   16.            R_256_5   4.          
    RHS       R_256_6   14.            R_256_7   18.         
    RHS       R_256_8   20.            R_256_9   18.         
    RHS       R_256_10  9.             R_256_11  7.          
    RHS       R_256_12  4.             R_256_13  16.         
    RHS       R_256_14  10.            R_256_15  16.         
BOUNDS
 UI BOUND     x_0       10.         
 UI BOUND     x_1       10.         
 UI BOUND     x_2       10.         
 UI BOUND     x_3       10.         
 UI BOUND     x_4       10.         
 UI BOUND     x_5       10.         
 UI BOUND     x_6       10.         
 UI BOUND     x_7       10.         
 UI BOUND     x_8       10.         
 UI BOUND     x_9       10.         
 UI BOUND     x_10      10.         
 UI BOUND     x_11      10.         
 UI BOUND     x_12      10.         
 UI BOUND     x_13      10.         
 UI BOUND     x_14      10.         
 UI BOUND     x_15      10.         
ENDATA
